NAME: instance_2774
TYPE: TSP
DIMENSION: 20
EDGE_WEIGHT_TYPE: EUC_2D
NODE_COORD_SECTION
0 42.61 58.76
1 26.51 43.98
2 71.73 28.57
3 83.95 85.90
4 53.44 6.02
5 73.16 34.83
6 65.78 74.00
7 64.92 13.45
8 63.31 58.71
9 77.45 43.48
10 13.25 6.35
11 3.76 87.03
12 14.74 71.69
13 13.26 1.40
14 27.56 11.72
15 45.08 72.42
16 45.76 25.54
17 4.04 89.89
18 92.08 91.89
19 13.84 45.08
EOF
